(set-option :produce-models true)
(set-logic QF_UF)
(declare-fun p4() Bool)
(declare-fun p25() Bool)
(declare-fun p58() Bool)
(declare-fun p39() Bool)
(declare-fun p48() Bool)
(declare-fun p19() Bool)
(declare-fun p15() Bool)
(declare-fun p16() Bool)
(declare-fun p7() Bool)
(declare-fun p22() Bool)
(declare-fun p6() Bool)
(declare-fun p40() Bool)
(declare-fun p78() Bool)
(declare-fun p21() Bool)
(declare-fun p65() Bool)
(declare-fun p64() Bool)
(declare-fun p46() Bool)
(declare-fun p29() Bool)
(declare-fun p38() Bool)
(declare-fun p53() Bool)
(declare-fun p12() Bool)
(declare-fun p41() Bool)
(declare-fun p79() Bool)
(declare-fun p31() Bool)
(declare-fun p45() Bool)
(declare-fun p71() Bool)
(declare-fun p35() Bool)
(declare-fun p70() Bool)
(declare-fun p28() Bool)
(declare-fun p75() Bool)
(declare-fun p20() Bool)
(declare-fun p49() Bool)
(declare-fun p54() Bool)
(declare-fun p24() Bool)
(declare-fun p14() Bool)
(declare-fun p2() Bool)
(declare-fun p17() Bool)
(declare-fun p66() Bool)
(declare-fun p8() Bool)
(declare-fun p0() Bool)
(declare-fun p60() Bool)
(declare-fun p73() Bool)
(declare-fun p13() Bool)
(declare-fun p33() Bool)
(declare-fun p11() Bool)
(declare-fun p43() Bool)
(declare-fun p44() Bool)
(declare-fun p50() Bool)
(declare-fun p9() Bool)
(declare-fun p34() Bool)
(declare-fun p52() Bool)
(declare-fun p51() Bool)
(declare-fun p57() Bool)
(declare-fun p10() Bool)
(declare-fun p26() Bool)
(declare-fun p3() Bool)
(declare-fun p76() Bool)
(declare-fun p18() Bool)
(declare-fun p68() Bool)
(declare-fun p77() Bool)
(declare-fun p55() Bool)
(declare-fun p42() Bool)
(declare-fun p27() Bool)
(declare-fun p63() Bool)
(declare-fun p47() Bool)
(declare-fun p61() Bool)
(declare-fun p23() Bool)
(declare-fun p30() Bool)
(declare-fun p37() Bool)
(declare-fun p72() Bool)
(declare-fun p59() Bool)
(declare-fun p74() Bool)
(declare-fun p36() Bool)
(declare-fun p1() Bool)
(declare-fun p69() Bool)
(declare-fun p67() Bool)
(declare-fun p5() Bool)
(declare-fun p62() Bool)
(declare-fun p32() Bool)
(declare-fun p56() Bool)
(assert
(and (or p4 (not p25) (not p58)) (or p39 (not p48) p19) (or p25 (not p15) (not p16)) (or p7 p22 p6) (or p4 p15 p40) (or (not p40) (not p78) (not p21)) (or (not p65) (not p64) (not p65)) (or p46 (not p58) p29) (or p38 p53 p12) (or (not p29) p41 p79) (or p31 (not p64) p45) (or p48 p22 (not p71)) (or p35 p70 (not p28)) (or p75 (not p20) p49) (or (not p20) p54 (not p24)) (or (not p6) p14 (not p20)) (or p2 (not p20) p49) (or (not p31) (not p45) (not p28)) (or (not p17) p66 p8) (or (not p49) (not p53) p0) (or p70 (not p75) (not p17)) (or (not p19) (not p60) p73) (or p70 p54 (not p54)) (or (not p45) (not p2) p64) (or (not p13) (not p33) (not p46)) (or p35 p0 (not p11)) (or (not p66) (not p7) (not p43)) (or (not p70) (not p6) p49) (or p44 p14 p35) (or (not p50) p31 p25) (or (not p12) (not p9) p73) (or p34 (not p2) (not p21)) (or (not p14) (not p14) (not p6)) (or (not p52) (not p31) p34) (or (not p70) (not p48) p64) (or (not p20) p64 (not p51)) (or p66 (not p14) p65) (or p65 p78 (not p38)) (or (not p57) p10 p26) (or (not p3) p4 p49) (or p11 p43 (not p17)) (or (not p76) p18 (not p54)) (or p68 (not p33) p22) (or (not p77) p55 (not p8)) (or p10 p78 p41) (or (not p54) (not p21) p65) (or p54 (not p38) p42) (or (not p19) (not p58) (not p76)) (or (not p15) (not p12) p9) (or p27 (not p25) p35) (or p4 (not p16) p12) (or (not p57) p27 p63) (or p70 p2 p47) (or (not p64) p27 (not p2)) (or p61 (not p11) (not p8)) (or (not p66) p61 p25) (or p22 (not p38) (not p23)) (or (not p30) (not p47) p64) (or p16 (not p37) (not p20)) (or p31 p33 (not p30)) (or p12 p65 (not p70)) (or p54 (not p65) (not p63)) (or (not p72) (not p43) p70) (or (not p25) p52 (not p35)) (or p77 (not p64) (not p73)) (or (not p10) p59 p60) (or (not p54) (not p26) p48) (or (not p74) p60 p6) (or (not p18) p3 p35) (or (not p44) (not p15) p36) (or p36 (not p57) (not p10)) (or p28 (not p43) p1) (or (not p53) (not p69) (not p45)) (or (not p46) (not p27) p20) (or (not p19) (not p58) (not p39)) (or (not p53) (not p71) (not p51)) (or (not p2) p66 p16) (or (not p31) (not p59) p24) (or p67 (not p73) (not p58)) (or (not p8) p77 p67) (or (not p64) (not p31) p70) (or p37 p55 (not p43)) (or (not p24) (not p37) (not p63)) (or p64 (not p8) (not p26)) (or p22 (not p12) p38) (or (not p5) p19 (not p63)) (or p36 (not p66) (not p62)) (or (not p19) (not p27) (not p52)) (or p65 (not p29) (not p36)) (or (not p3) (not p69) p33) (or p71 (not p41) p50) (or p41 p16 (not p10)) (or (not p59) (not p30) (not p64)) (or (not p78) (not p78) (not p3)) (or p43 (not p14) p49) (or p32 (not p51) p6) (or (not p63) p44 (not p47)) (or (not p52) (not p64) p46) (or p21 (not p56) (not p60)) (or p5 p38 p76) (or p32 p72 p13) (or (not p38) (not p79) p58) (or p30 (not p39) p30) (or (not p40) (not p26) (not p74)) (or (not p50) (not p0) p11) (or p0 p63 (not p36)) (or p56 (not p23) p42) (or p68 (not p0) p52) (or p55 (not p63) p77) (or p49 (not p19) (not p4)) (or (not p37) (not p59) p69) (or p66 p67 p38) (or (not p66) p43 p3) (or (not p26) (not p21) p65) (or p57 (not p12) p43) (or (not p65) p43 (not p62)) (or p17 p69 (not p65)) (or (not p77) (not p31) p74) (or (not p24) (not p40) p54) (or (not p45) p7 p13) (or p29 p51 p2) (or (not p29) p44 (not p42)) (or (not p66) (not p46) p33) (or p32 p46 p2) (or (not p5) (not p33) p46) (or (not p69) p19 (not p0)) (or (not p51) p62 (not p35)) (or (not p17) p59 (not p75)) (or p0 (not p14) (not p3)) (or (not p15) p41 (not p18)) (or p15 p39 p31) (or (not p48) p28 (not p17)) (or (not p73) p44 p41) (or (not p9) p58 p5) (or (not p67) (not p18) p17) (or (not p34) (not p62) (not p71)) (or p75 p56 (not p71)) (or p62 (not p60) (not p34)) (or (not p0) (not p68) p27) (or (not p23) (not p47) p54) (or (not p53) (not p15) p10) (or (not p24) p8 (not p15)) (or (not p25) p24 p6) (or (not p45) (not p8) p32) (or (not p17) p74 (not p62)) (or p22 (not p78) (not p63)) (or (not p3) (not p17) (not p13)) (or p57 (not p46) (not p55)) (or (not p53) (not p41) (not p76)) (or (not p70) (not p75) (not p64)) (or p36 (not p23) p27) (or p42 (not p60) p17) (or (not p52) (not p3) (not p75)) (or p41 p33 p24) (or p61 p16 (not p44)) (or p17 (not p72) p18) (or (not p70) p70 p43) (or (not p71) p43 (not p36)) (or (not p58) (not p71) (not p26)) (or p9 p72 (not p46)) (or p59 p18 (not p3)) (or (not p38) p36 p54) (or p17 p66 (not p70)) (or p71 (not p56) (not p33)) (or p71 (not p24) (not p67)) (or p35 p43 p48) (or (not p47) p37 (not p63)) (or p6 (not p49) p21) (or p30 (not p40) p77) (or (not p68) (not p45) p26) (or (not p5) p27 (not p24)) (or (not p57) (not p16) (not p71)) (or p56 (not p1) p6) (or p16 (not p22) p21) (or p10 (not p12) (not p41)) (or p21 (not p56) p62) (or (not p8) (not p41) p18) (or (not p20) p45 p67) (or p3 (not p65) (not p32)) (or p51 (not p30) (not p65)) (or (not p77) (not p20) p5) (or (not p28) p67 p12) (or (not p38) (not p76) p9) (or (not p23) p40 p11) (or (not p34) (not p43) (not p77)) (or (not p19) (not p0) p38) (or p53 p12 (not p33)) (or p56 p42 p6) (or (not p42) p26 p19) (or p64 (not p51) p24) (or p13 (not p53) p65) (or p36 p70 (not p10)) (or p61 p20 (not p10)) (or (not p70) (not p43) (not p52)) (or (not p70) p54 (not p29)) (or p38 (not p22) p40) (or p39 p10 (not p40)) (or (not p47) p46 (not p40)) (or p77 (not p27) p21) (or p79 p0 p79) (or (not p71) p62 (not p9)) (or p61 (not p13) p57) (or p6 (not p27) (not p27)) (or p7 p46 p1) (or (not p76) (not p46) (not p59)) (or p69 p74 (not p35)) (or p38 p35 (not p59)) (or p38 (not p0) p59) (or (not p51) p4 (not p43)) (or (not p65) p47 p40) (or (not p36) (not p72) (not p34)) (or (not p75) (not p54) (not p7)) (or p5 p51 (not p5)) (or (not p73) (not p52) p43) (or p56 p3 p29) (or (not p48) (not p39) (not p72)) (or (not p20) p5 (not p34)) (or (not p54) p37 (not p48)) (or p68 p78 (not p74)) (or (not p32) p0 (not p26)) (or (not p77) (not p24) p68) (or (not p44) (not p70) (not p43)) (or p72 (not p4) p36) (or (not p30) (not p2) p75) (or (not p65) p79 p36) (or p59 p11 (not p42)) (or p26 p31 p32) (or p74 (not p36) (not p17)) (or (not p37) p45 (not p52)) (or (not p40) p16 p57) (or p26 (not p50) p77) (or p43 (not p8) (not p49)) (or p1 (not p20) p23) (or (not p6) p9 (not p57)) (or (not p28) (not p46) (not p1)) (or p60 p6 (not p49)) (or (not p29) (not p20) p21) (or (not p3) p31 (not p5)) (or (not p7) (not p41) (not p23)) (or (not p44) (not p74) p19) (or p15 (not p39) p21) (or p73 (not p0) p57) (or (not p67) (not p65) (not p61)) (or (not p14) p19 p39) (or (not p41) (not p1) (not p11)) (or (not p74) p74 p25) (or (not p23) (not p8) (not p50)) (or p33 (not p3) (not p35)) (or p6 (not p30) p72) (or (not p32) (not p76) p34) (or p8 (not p17) (not p52)) (or (not p37) p69 (not p73)) (or (not p28) (not p28) (not p71)) (or p39 p16 p39) (or p38 p16 p0) (or p34 p71 p29) (or (not p52) p16 (not p29)) (or p64 (not p0) p19) (or p10 (not p40) p43) (or p79 (not p44) (not p58)) (or p14 (not p77) p18) (or p29 p28 (not p79)) (or p34 p5 p37) (or (not p20) (not p4) p72) (or (not p25) p39 (not p35)) (or (not p58) (not p62) (not p24)) (or p21 p48 p70) (or p4 (not p19) p19) (or p40 p14 (not p33)) (or p7 (not p50) (not p7)) (or p42 (not p58) (not p73)) (or (not p67) (not p20) p51) (or p8 (not p45) (not p28)) (or (not p71) p29 p21) (or p58 (not p41) (not p46)) (or (not p7) p49 (not p75)) (or (not p20) p59 (not p0)) (or p60 (not p48) (not p49)) (or (not p31) p55 (not p4)) (or p6 p57 (not p9)) (or p67 (not p2) p9) (or p42 (not p33) (not p8)) (or (not p13) p66 p11) (or (not p4) p54 (not p17)) (or p49 p51 (not p75)) (or (not p62) p14 p9) (or (not p69) (not p21) (not p79)) (or p46 (not p0) (not p77)) (or p1 p19 p17) (or p66 (not p7) (not p43)) (or (not p0) p13 p57) (or (not p64) (not p42) (not p45)) (or (not p28) p7 (not p30)) (or (not p23) (not p47) p69) (or p1 p63 (not p41)) (or p55 p32 (not p31)) (or (not p59) p66 (not p57)) (or (not p38) p6 p17) (or (not p12) (not p30) p38) (or (not p12) p18 p20) (or (not p7) (not p8) p11) (or (not p75) (not p30) p20) (or (not p59) p50 p46) (or (not p54) (not p57) p70) (or (not p9) p20 p12) (or p56 p16 (not p53)) (or p23 (not p43) (not p0)) (or (not p3) p44 p1) (or (not p20) (not p28) (not p19)) (or p10 p50 p16) (or p43 (not p77) (not p63)) (or (not p42) p54 (not p69)) (or (not p24) p76 (not p3)) (or p51 p79 (not p47)) (or p45 p60 p42) (or (not p24) (not p78) (not p29)) (or (not p9) p8 (not p26)) (or p76 (not p11) p13) (or (not p63) (not p32) (not p31)) (or p45 p59 (not p55)) (or (not p21) (not p35) p76) (or p77 p9 p15) (or p59 (not p75) (not p7)) (or p41 p75 (not p8)) (or (not p13) p69 (not p69)) (or (not p19) (not p19) (not p56)) (or p50 (not p14) (not p35)) (or p48 (not p56) (not p19)) (or p34 (not p19) p6) (or (not p6) p46 p64) (or p13 (not p4) (not p28)) (or (not p15) (not p15) p30) (or p7 p14 p62) (or (not p29) (not p31) p41) (or (not p53) (not p29) (not p16)) (or (not p3) p21 p41) (or (not p46) p6 p33))
)
(check-sat)
(get-model)
